data;
param n:=100;
param w:=1 -448 2 426 3 323 4 -256 5 -521 6 -151 7 176 8 33 9 -445 10 -487 11 332 12 99 13 -535 14 -40 15 318 16 446 17 311 18 -402 19 137 20 -97 21 420 22 300 23 354 24 426 25 71 26 -220 27 177 28 206 29 283 30 -232 31 -277 32 -83 33 -462 34 -190 35 -354 36 117 37 -517 38 -529 39 -17 40 140 41 -156 42 -142 43 -177 44 455 45 -249 46 -263 47 263 48 -396 49 314 50 -441 51 328 52 44 53 -484 54 373 55 348 56 401 57 44 58 393 59 150 60 83 61 -538 62 423 63 37 64 159 65 -394 66 205 67 -460 68 135 69 217 70 -206 71 -222 72 313 73 -309 74 122 75 -418 76 419 77 -249 78 -210 79 102 80 417 81 355 82 147 83 140 84 93 85 387 86 82 87 202 88 339 89 -225 90 -499 91 177 92 -516 93 -164 94 61 95 -356 96 368 97 231 98 217 99 -480 100 178;
